NAME : tsp50_26.233.tour
COMMENT : Length = 233
COMMENT : Found by LKH [Keld Helsgaun]
TYPE : TOUR
DIMENSION : 50
TOUR_SECTION
1
3
30
25
31
27
38
46
33
36
48
50
17
43
6
42
19
49
29
2
10
35
23
41
28
20
11
9
16
37
34
21
22
44
45
47
13
24
39
26
14
5
32
4
40
15
12
18
8
7
-1
EOF
